<instance format="XCSP3" type="CSP">
  <variables>
    <var id="x0"> 6 7 10 </var>
    <var id="x1"> 6 8 13 14 </var>
    <var id="x2"> 0 6 7 13 </var>
    <var id="x3"> 6..8 10 </var>
    <var id="x4"> 0 8 14 </var>
    <var id="x5"> 0 8 13 14 </var>
    <var id="x6"> 0 6 7 14 </var>
    <var id="x7"> 1 3 5..7 </var>
    <var id="x8"> 4 6 </var>
    <var id="x9"> 1 6 7 </var>
    <var id="x10"> 3 4 6 7 </var>
    <var id="x11"> 3 4 6 12 </var>
    <var id="x12"> 3 5 6 </var>
    <var id="x13"> 1 5..7 12 </var>
    <var id="x14"> 9 11 </var>
    <var id="x15"> 6 8 9 </var>
    <var id="x16"> 3 6..9 </var>
    <var id="x17"> 3 6..8 </var>
    <var id="x18"> 0 8 9 11 </var>
    <var id="x19"> 0 6 7 11 </var>
    <var id="x20"> 6 7 </var>
    <var id="x21"> 1 11 12 </var>
    <var id="x22"> 3 6 14 </var>
    <var id="x23"> 3 6 12 13 </var>
    <var id="x24"> 1 6 11 </var>
    <var id="x25"> 3 11..14 </var>
    <var id="x26"> 3 6 11 14 </var>
    <var id="x27"> 1 6 12 13 </var>
    <var id="x28"> 1 5 9 11 </var>
    <var id="x29"> 8 9 13 14 </var>
    <var id="x30"> 1 8 11 14 </var>
    <var id="x31"> 3 8 14 </var>
    <var id="x32"> 3 13 14 </var>
    <var id="x33"> 3 9 13 </var>
    <var id="x34"> 1 8 11 </var>
    <var id="x35"> 1 5 11 14 </var>
    <var id="x36"> 4 5 10 12 </var>
    <var id="x37"> 5 7 10 </var>
    <var id="x38"> 0 4 7 </var>
    <var id="x39"> 7 8 10 </var>
    <var id="x40"> 0 5 8 </var>
    <var id="x41"> 0 4 8 10 </var>
    <var id="x42"> 0 5 7 12 </var>
    <var id="x43"> 1 2 6 10 </var>
    <var id="x44"> 6 9 13 </var>
    <var id="x45"> 6 9 10 </var>
    <var id="x46"> 6 12 13 </var>
    <var id="x47"> 2 6 9 12 13 </var>
    <var id="x48"> 12 13 </var>
    <var id="x49"> 1 6 12 </var>
    <var id="x50"> 0 4 6 11 </var>
    <var id="x51"> 4 6 </var>
    <var id="x52"> 0 8 11 14 </var>
    <var id="x53"> 0 4 6 8 10 11 </var>
    <var id="x54"> 0 8 11 14 </var>
    <var id="x55"> 0 6 11 14 </var>
    <var id="x56"> 0 6 10 11 14 </var>
    <var id="x57"> 6 11 </var>
    <var id="x58"> 3 5 6 10 </var>
    <var id="x59"> 3 6 10 14 </var>
    <var id="x60"> 3 6 14 </var>
    <var id="x61"> 3 11 14 </var>
    <var id="x62"> 3 5 6 10 11 14 </var>
    <var id="x63"> 2 5 6 </var>
    <var id="x64"> 1 11 </var>
    <var id="x65"> 2 6 14 </var>
    <var id="x66"> 3 6 7 </var>
    <var id="x67"> 3 6 7 14 </var>
    <var id="x68"> 2 3 6 </var>
    <var id="x69"> 1 11 14 </var>
    <var id="x70"> 3 6 11 14 </var>
    <var id="x71"> 4 6 9 13 14 </var>
    <var id="x72"> 1 6 14 </var>
    <var id="x73"> 4 6 14 </var>
    <var id="x74"> 4 6 13 14 </var>
    <var id="x75"> 4 6 9 13 </var>
    <var id="x76"> 1 4 6 </var>
    <var id="x77"> 1 5 6 13 </var>
    <var id="x78"> 4 11 12 </var>
    <var id="x79"> 4 6 14 </var>
    <var id="x80"> 6 7 11 14 </var>
    <var id="x81"> 0 11 14 </var>
    <var id="x82"> 0 4 6 11 </var>
    <var id="x83"> 0 11 12 14 </var>
    <var id="x84"> 0 6 11 14 </var>
    <var id="x85"> 3 5 7 10 </var>
    <var id="x86"> 4 7 9 11 </var>
    <var id="x87"> 3 5 7 9 10 </var>
    <var id="x88"> 7 10 11 </var>
    <var id="x89"> 3 4 7 </var>
    <var id="x90"> 4 10 11 </var>
    <var id="x91"> 3 5 10 11 </var>
    <var id="x92"> 5 12 </var>
    <var id="x93"> 2 5 6 </var>
    <var id="x94"> 0 6 13 </var>
    <var id="x95"> 5 6 8 </var>
    <var id="x96"> 6 12 13 </var>
    <var id="x97"> 0 5 6 12 </var>
    <var id="x98"> 2 5 6 12 13 </var>
    <var id="x99"> 1 6 7 10 </var>
    <var id="x100"> 1 6..8 10 </var>
    <var id="x101"> 4 6..8 10 </var>
    <var id="x102"> 1 8 9 </var>
    <var id="x103"> 8 </var>
    <var id="x104"> 1 6 7 </var>
    <var id="x105"> 1 6 7 </var>
  </variables>
  <constraints>
    <group>
      <allDifferent> %... </allDifferent>
      <args> x0 x1 x2 x3 x4 x5 x6 </args>
      <args> x7 x8 x9 x10 x11 x12 x13 </args>
      <args> x14 x15 x16 x17 x18 x19 x20 </args>
      <args> x21 x22 x23 x24 x25 x26 x27 </args>
      <args> x28 x29 x30 x31 x32 x33 x34 x35 </args>
      <args> x36 x37 x38 x39 x40 x41 x42 </args>
      <args> x43 x44 x45 x46 x47 x48 x49 </args>
      <args> x50 x51 x52 x53 x54 x55 x56 </args>
      <args> x57 x58 x59 x60 x61 x62 x63 </args>
      <args> x64 x65 x66 x67 x68 x69 x70 </args>
      <args> x71 x72 x73 x74 x75 x76 x77 </args>
      <args> x78 x79 x80 x81 x82 x83 x84 </args>
      <args> x85 x86 x87 x88 x89 x90 x91 </args>
      <args> x92 x93 x94 x95 x96 x97 x98 </args>
      <args> x99 x100 x101 x102 x103 x104 x105 </args>
      <args> x14 x21 x28 x36 x64 x78 x92 </args>
      <args> x0 x7 x37 x43 x85 x93 x99 </args>
      <args> x1 x8 x15 x29 x65 x71 x79 </args>
      <args> x2 x38 x44 x50 x57 x86 x94 </args>
      <args> x3 x16 x45 x58 x66 x87 x95 </args>
      <args> x9 x30 x39 x72 x80 x88 x100 </args>
      <args> x10 x17 x22 x31 x59 x73 x101 </args>
      <args> x32 x46 x60 x67 x74 x89 x96 </args>
      <args> x11 x23 x33 x47 x51 x68 x75 </args>
      <args> x4 x18 x40 x52 x69 x81 x102 </args>
      <args> x24 x34 x41 x53 x76 x82 x90 </args>
      <args> x5 x25 x48 x54 x61 x83 x103 </args>
      <args> x6 x19 x35 x42 x49 x55 x97 x104 </args>
      <args> x12 x26 x56 x62 x70 x84 x91 </args>
      <args> x13 x20 x27 x63 x77 x98 x105 </args>
    </group>
  </constraints>
</instance>

